NAME : ClusterId_1003 
COMMENT : (Gillet and Johnson) 
TYPE : CVRP 
DIMENSION : 19 
EDGE_WEIGHT_TYPE : EUC_2D 
CAPACITY : 500 
NODE_COORD_SECTION 
1003 7910 3494 
922 8042 5185 
276 8356 4728 
170 8217 4739 
243 8440 4482 
287 8492 3966 
603 8577 3228 
996 8342 3911 
132 8399 3387 
480 8218 3656 
864 7920 3930 
506 8125 3368 
789 7702 4074 
875 7743 3899 
983 7777 3621 
4 7654 3557 
691 7427 3870 
541 7436 3729 
578 7214 3837 
DEMAND_SECTION 
1003 728
922 26
276 40
170 35
243 53
287 43
603 41
996 33
132 54
480 56
864 25
506 45
789 45
875 31
983 30
4 54
691 42
541 32
578 37
DEPOT_SECTION 
1003
 -1
EOF